175263.62,49.77,61.72
162767.08,53.59,66.46
168234.57,51.85,64.3
164183.31,53.13,65.88
178436.01,48.88,60.62
158235.66,55.12,68.36
164814.31,52.92,65.63
181846.6,47.97,59.48
163112.71,53.48,66.31
167583.48,52.05,64.55
161206.99,54.11,67.1
149808.32,58.22,72.2
153101.57,56.97,70.65
172531.22,50.56,62.69
166665.11,52.34,64.9
151236.95,57.67,71.52
161194.54,54.11,67.1
157402.0,55.42,68.72
181185.06,48.14,59.7
145159.4,60.09,74.52
